letting n_nurses=25
letting n_days=7
letting n_shift_types=4
letting max_covers=8
letting t_covers=35
letting covers=[0,0,0,0,0,0,0,0,1,0,0,0,6,4,0,0,0,0,0,0,0,7,5,0,1,8,3,0]
letting prefes=[2,1,1,1,2,3,3,2,2,3,3,2,2,3,2,3,2,1,1,1,2,1,1,1,2,1,1,1,1,2,2,2,2,3,3,2,2,3,3,2,2,3,2,3,1,2,2,2,1,2,2,2,1,2,2,2,1,2,2,2,3,3,3,3,3,3,3,3,2,3,2,3,1,2,2,2,1,2,2,2,1,2,2,2,1,1,1,1,2,3,3,2,2,3,3,2,2,3,2,3,1,1,1,1,1,1,1,1,1,1,1,1,1,2,1,1,2,3,3,2,2,3,3,2,1,3,1,3,1,2,1,1,1,2,1,1,1,2,1,1,1,2,1,1,2,3,3,2,2,3,3,2,1,3,1,3,1,2,1,1,1,2,1,1,1,2,1,1,1,2,2,2,2,3,3,2,2,3,3,2,2,2,2,2,1,2,2,2,1,2,2,2,1,2,2,2,2,2,2,2,2,3,3,2,2,3,3,2,2,3,2,3,2,2,2,2,2,2,2,2,2,2,2,2,1,2,2,2,2,3,3,2,2,3,3,2,2,3,2,3,1,2,2,2,1,2,2,2,1,2,2,2,2,2,2,2,2,3,3,2,2,3,3,2,2,3,2,3,2,2,2,2,2,2,2,2,2,2,2,2,1,2,2,2,2,3,3,2,2,3,3,2,2,3,2,3,1,2,2,2,1,2,2,2,1,2,2,2,1,2,2,2,2,3,3,2,2,3,3,2,1,3,1,3,1,2,2,2,1,2,2,2,1,2,2,2,2,2,2,2,2,2,3,2,2,2,3,2,2,2,2,2,2,2,2,2,2,2,2,2,2,2,2,2,1,2,2,2,2,2,2,2,2,2,2,2,2,3,2,3,1,2,2,2,1,2,2,2,1,2,2,2,1,2,2,2,2,3,3,2,2,3,3,2,2,3,2,3,1,2,2,2,1,2,2,2,1,2,2,2,1,2,2,2,2,3,2,2,2,3,2,2,2,3,2,3,1,2,2,2,1,2,2,2,1,2,2,2,1,1,1,1,2,2,3,2,2,2,3,2,2,2,2,2,1,1,1,1,1,1,1,1,1,1,1,1,1,2,2,2,2,2,3,2,2,2,3,2,2,2,2,2,1,2,2,2,1,2,2,2,1,2,2,2,1,2,2,2,3,3,3,3,3,3,3,3,2,3,2,3,1,2,2,2,1,2,2,2,1,2,2,2,1,1,2,2,2,3,2,2,2,3,2,2,2,3,2,3,1,1,2,2,1,1,2,2,1,1,2,2,2,2,2,2,3,3,2,3,3,3,2,3,1,3,1,3,2,2,2,2,2,2,2,2,2,2,2,2,1,1,2,2,2,2,2,2,2,2,2,2,2,2,2,2,1,1,2,2,1,1,2,2,1,1,2,2,1,2,2,2,3,3,3,3,3,3,3,3,2,3,2,3,1,2,2,2,1,2,2,2,1,2,2,2,1,2,2,2,2,3,3,2,2,3,3,2,2,3,2,3,1,2,2,2,1,2,2,2,1,2,2,2,1,2,2,2,3,3,3,3,3,3,3,3,1,3,1,3,1,2,2,2,1,2,2,2,1,2,2,2]
letting ub =  270
